50
17508

218 919
855 882
38 569
543 211
580 980
112 611
636 878
708 83
637 666
266 986
310 14
849 321
232 90
678 752
114 940
54 429
625 881
404 744
310 358
185 608
969 312
848 426
450 781
816 209
813 563
274 364
549 44
522 204
230 884
841 266
726 620
396 577
639 738
210 279
453 276
551 458
932 575
537 651
773 917
443 984
63 704
842 323
172 535
720 264
990 568
101 730
341 445
419 936
5 857
95 893
